NAME          
ROWS
 N  OBJ
 L  c1
 L  c2
 L  c3
COLUMNS
    MARKER    'MARKER'                 'INTORG'
    x[1]      c1        566
    x[1]      c2        125
    x[1]      c3        850
    x[1]      OBJ       -270
    x[2]      c1        847
    x[2]      c2        932
    x[2]      c3        821
    x[2]      OBJ       -866
    x[3]      c1        35
    x[3]      c2        269
    x[3]      c3        594
    x[3]      OBJ       -482
    x[4]      c1        702
    x[4]      c2        213
    x[4]      c3        794
    x[4]      OBJ       -852
    x[5]      c1        936
    x[5]      c2        190
    x[5]      c3        105
    x[5]      OBJ       -992
    x[6]      c1        582
    x[6]      c2        577
    x[6]      c3        710
    x[6]      OBJ       -796
    x[7]      c1        677
    x[7]      c2        315
    x[7]      c3        767
    x[7]      OBJ       -676
    x[8]      c1        534
    x[8]      c2        369
    x[8]      c3        523
    x[8]      OBJ       -614
    x[9]      c1        860
    x[9]      c2        844
    x[9]      c3        647
    x[9]      OBJ       -242
    x[10]     c1        398
    x[10]     c2        215
    x[10]     c3        645
    x[10]     OBJ       -80
    x[11]     c1        132
    x[11]     c2        635
    x[11]     c3        104
    x[11]     OBJ       -84
    x[12]     c1        898
    x[12]     c2        335
    x[12]     c3        723
    x[12]     OBJ       -758
    x[13]     c1        460
    x[13]     c2        452
    x[13]     c3        604
    x[13]     OBJ       -215
    x[14]     c1        846
    x[14]     c2        507
    x[14]     c3        855
    x[14]     OBJ       -809
    x[15]     c1        651
    x[15]     c2        365
    x[15]     c3        869
    x[15]     OBJ       -667
    x[16]     c1        284
    x[16]     c2        284
    x[16]     c3        281
    x[16]     OBJ       -650
    x[17]     c1        594
    x[17]     c2        453
    x[17]     c3        727
    x[17]     OBJ       -119
    x[18]     c1        768
    x[18]     c2        394
    x[18]     c3        659
    x[18]     OBJ       -471
    x[19]     c1        676
    x[19]     c2        902
    x[19]     c3        456
    x[19]     OBJ       -987
    x[20]     c1        1000
    x[20]     c2        67
    x[20]     c3        909
    x[20]     OBJ       -956
    x[21]     c1        3
    x[21]     c2        15
    x[21]     c3        939
    x[21]     OBJ       -825
    x[22]     c1        419
    x[22]     c2        326
    x[22]     c3        870
    x[22]     OBJ       -573
    x[23]     c1        158
    x[23]     c2        63
    x[23]     c3        894
    x[23]     OBJ       -551
    x[24]     c1        899
    x[24]     c2        459
    x[24]     c3        414
    x[24]     OBJ       -67
    x[25]     c1        746
    x[25]     c2        217
    x[25]     c3        795
    x[25]     OBJ       -282
    x[26]     c1        790
    x[26]     c2        194
    x[26]     c3        571
    x[26]     OBJ       -421
    x[27]     c1        24
    x[27]     c2        974
    x[27]     c3        191
    x[27]     OBJ       -213
    x[28]     c1        200
    x[28]     c2        822
    x[28]     c3        595
    x[28]     OBJ       -854
    x[29]     c1        340
    x[29]     c2        976
    x[29]     c3        474
    x[29]     OBJ       -351
    x[30]     c1        741
    x[30]     c2        662
    x[30]     c3        191
    x[30]     OBJ       -845
    x[31]     c1        407
    x[31]     c2        609
    x[31]     c3        681
    x[31]     OBJ       -446
    x[32]     c1        547
    x[32]     c2        664
    x[32]     c3        579
    x[32]     OBJ       -999
    x[33]     c1        527
    x[33]     c2        178
    x[33]     c3        114
    x[33]     OBJ       -231
    x[34]     c1        47
    x[34]     c2        80
    x[34]     c3        245
    x[34]     OBJ       -798
    x[35]     c1        763
    x[35]     c2        192
    x[35]     c3        197
    x[35]     OBJ       -245
    x[36]     c1        335
    x[36]     c2        948
    x[36]     c3        14
    x[36]     OBJ       -598
    x[37]     c1        664
    x[37]     c2        201
    x[37]     c3        819
    x[37]     OBJ       -486
    x[38]     c1        658
    x[38]     c2        576
    x[38]     c3        531
    x[38]     OBJ       -232
    x[39]     c1        154
    x[39]     c2        840
    x[39]     c3        2
    x[39]     OBJ       -774
    x[40]     c1        680
    x[40]     c2        658
    x[40]     c3        265
    x[40]     OBJ       -548
    x[41]     c1        804
    x[41]     c2        556
    x[41]     c3        602
    x[41]     OBJ       -273
    x[42]     c1        774
    x[42]     c2        109
    x[42]     c3        435
    x[42]     OBJ       -540
    x[43]     c1        358
    x[43]     c2        619
    x[43]     c3        560
    x[43]     OBJ       -960
    x[44]     c1        899
    x[44]     c2        112
    x[44]     c3        740
    x[44]     OBJ       -604
    x[45]     c1        373
    x[45]     c2        631
    x[45]     c3        73
    x[45]     OBJ       -712
RHS
    rhs       c1        12378
    rhs       c2        10062
    rhs       c3        12217
RANGES
BOUNDS
 BV bounds    x[1]
 BV bounds    x[2]
 BV bounds    x[3]
 BV bounds    x[4]
 BV bounds    x[5]
 BV bounds    x[6]
 BV bounds    x[7]
 BV bounds    x[8]
 BV bounds    x[9]
 BV bounds    x[10]
 BV bounds    x[11]
 BV bounds    x[12]
 BV bounds    x[13]
 BV bounds    x[14]
 BV bounds    x[15]
 BV bounds    x[16]
 BV bounds    x[17]
 BV bounds    x[18]
 BV bounds    x[19]
 BV bounds    x[20]
 BV bounds    x[21]
 BV bounds    x[22]
 BV bounds    x[23]
 BV bounds    x[24]
 BV bounds    x[25]
 BV bounds    x[26]
 BV bounds    x[27]
 BV bounds    x[28]
 BV bounds    x[29]
 BV bounds    x[30]
 BV bounds    x[31]
 BV bounds    x[32]
 BV bounds    x[33]
 BV bounds    x[34]
 BV bounds    x[35]
 BV bounds    x[36]
 BV bounds    x[37]
 BV bounds    x[38]
 BV bounds    x[39]
 BV bounds    x[40]
 BV bounds    x[41]
 BV bounds    x[42]
 BV bounds    x[43]
 BV bounds    x[44]
 BV bounds    x[45]
ENDATA
